CMD:
./solvers/bin/cadical --plain --no-reduce -t 1600 ./data/cnfs//arbitrated_top_n4_w16_d32_e0/arbitrated_top_n4_w16_d32_e0.85.cnf

c --- [ banner ] -------------------------------------------------------------
c 
c CaDiCaL SAT Solver
c Copyright (c) 2016-2024
c A. Biere, M. Fleury, N. Froleyks, K. Fazekas, F. Pollitt, T. Faller
c JKU Linz, University of Freiburg, TU Wien
c 
c Version 2.1.3 5296d3d2a9bf48c154ab2acb5e44625776d821bf
c g++ (Gentoo 12.3.1_p20230526 p2) 12.3.1 20230526 -Wall -Wextra -O3 -DNDEBUG
c Sat Aug 9 07:26:21 PDT 2025 Linux cedar2.int.cedar.computecanada.ca 5.14.0-362.24.2.el9_3.x86_64 x86_64
c 
c --- [ limit ] --------------------------------------------------------------
c 
c setting time limit to 1600 seconds real time (due to '-t 1600')
c 
c --- [ parsing input ] ------------------------------------------------------
c 
c reading DIMACS file from './data/cnfs//arbitrated_top_n4_w16_d32_e0/arbitrated_top_n4_w16_d32_e0.85.cnf'
c opening file to read './data/cnfs//arbitrated_top_n4_w16_d32_e0/arbitrated_top_n4_w16_d32_e0.85.cnf'
c found 'p cnf 1072329 3190773' header
c parsed 3190773 clauses in 0.43 seconds process time
c 
c --- [ options ] ------------------------------------------------------------
c 
c   --compact=false                (different from default 'true')
c   --decompose=false              (different from default 'true')
c   --deduplicate=false            (different from default 'true')
c   --elim=false                   (different from default 'true')
c   --probe=false                  (different from default 'true')
c   --reduce=false                 (different from default 'true')
c   --subsume=false                (different from default 'true')
c   --ternary=false                (different from default 'true')
c   --transred=false               (different from default 'true')
c   --vivify=false                 (different from default 'true')
c 
c --- [ solving ] ------------------------------------------------------------
c 
c time measured in process time since initialization
c 
c  seconds   reductions  redundant   irredundant
c          MB    restarts       trail        variables
c           level   conflicts       glue           remaining
c 
c *  0.43 426  0 0   0    0    0  0% 0 2490769 566194 53%
c l  0.49 436  0 0   0    0    0  0% 0 2490769 566194 53%
c 1  0.49 436  0 0   0    0    0  0% 0 2490769 566194 53%
c 
c --- [ result ] -------------------------------------------------------------
c 
s SATISFIABLE
v 1 2 3 4 5 6 7 8 9 10 11 12 13 14 15 16 17 18 19 20 21 22 23 24 25 26 27 28
v 29 30 31 32 33 34 35 36 37 38 39 40 41 42 43 44 45 46 47 48 49 50 51 52 53
v 54 55 56 57 58 59 60 61 62 63 64 65 66 67 68 69 70 71 72 73 74 75 76 77 78
v 79 80 81 82 83 84 85 86 87 88 89 90 91 92 93 94 95 96 97 98 99 100 101 102
v 103 104 105 106 107 108 109 110 111 112 113 114 115 116 117 118 119 120 121
v 122 123 124 125 126 127 128 129 130 131 132 133 134 135 136 137 138 139 140
v 141 142 143 144 145 146 147 148 149 150 151 152 153 154 155 156 157 158 159
v 160 161 162 163 164 165 166 167 168 169 170 171 172 173 174 175 176 177 178
v 179 180 181 182 183 184 185 186 187 188 189 190 191 192 193 194 195 196 197
v 198 199 200 201 202 203 204 205 206 207 208 209 210 211 212 213 214 215 216
v 217 218 219 220 221 222 223 224 225 226 227 228 229 230 231 232 233 234 235
v 236 237 238 239 240 241 242 243 244 245 246 247 248 249 250 251 252 253 254
v 255 256 257 258 259 260 261 262 263 264 265 266 267 268 269 270 271 272 273
v 274 275 276 277 278 279 280 281 282 283 284 285 286 287 288 289 290 291 292
v 293 294 295 296 297 298 299 300 301 302 303 304 305 306 307 308 309 310 311
v 312 313 314 315 316 317 318 319 320 321 322 323 324 325 326 327 328 329 330
v 331 332 333 334 335 336 337 338 339 340 341 342 343 344 345 346 347 348 349
v 350 351 352 353 354 355 356 357 358 359 360 361 362 363 364 365 366 367 368
v 369 370 371 372 373 374 375 376 377 378 379 380 381 382 383 384 385 386 387
v 388 389 390 391 392 393 394 395 396 397 398 399 400 401 402 403 404 405 406
v 407 408 409 410 411 412 413 414 415 416 417 418 419 420 421 422 423 424 425
v 426 427 428 429 430 431 432 433 434 435 436 437 438 439 440 441 442 443 444
v 445 446 447 448 449 450 451 452 453 454 455 456 457 458 459 460 461 462 463
v 464 465 466 467 468 469 470 471 472 473 474 475 476 477 478 479 480 481 482
v 483 484 485 486 487 488 489 490 491 492 493 494 495 496 497 498 499 500 501
v 502 503 504 505 506 507 508 509 510 511 512 513 514 515 516 517 518 519 520
v 521 522 523 524 525 526 527 528 529 530 531 532 533 534 535 536 537 538 539
v 540 541 542 543 544 545 546 547 548 549 550 551 552 553 554 555 556 557 558
v 559 560 561 562 563 564 565 566 567 568 569 570 571 572 573 574 575 576 577
v 578 579 580 581 582 583 584 585 586 587 588 589 590 591 592 593 594 595 596
v 597 598 599 600 601 602 603 604 605 606 607 608 609 610 611 612 613 614 615
v 616 617 618 619 620 621 622 623 624 625 626 627 628 629 630 631 632 633 634
v 635 636 637 638 639 640 641 642 643 644 645 646 647 648 649 650 651 652 653
v 654 655 656 657 658 659 660 661 662 663 664 665 666 667 668 669 670 671 672
v 673 674 675 676 677 678 679 680 681 682 683 684 685 686 687 688 689 690 691
v 692 693 694 695 696 697 698 699 700 701 702 703 704 705 706 707 708 709 710
v 711 712 713 714 715 716 717 718 719 720 721 722 723 724 725 726 727 728 729
v 730 731 732 733 734 735 736 737 738 739 740 741 742 743 744 745 746 747 748
v 749 750 751 752 753 754 755 756 757 758 759 760 761 762 763 764 765 766 767
v 768 769 770 771 772 773 774 775 776 777 778 779 780 781 782 783 784 785 786
v 787 788 789 790 791 792 793 794 795 796 797 798 799 800 801 802 803 804 805
v 806 807 808 809 810 811 812 813 814 815 816 817 818 819 820 821 822 823 824
v 825 826 827 828 829 830 831 832 833 834 835 836 837 838 839 840 841 842 843
v 844 845 846 847 848 849 850 851 852 853 854 855 856 857 858 859 860 861 862
v 863 864 865 866 867 868 869 870 871 872 873 874 875 876 877 878 879 880 881
v 882 883 884 885 886 887 888 889 890 891 892 893 894 895 896 897 898 899 900
v 901 902 903 904 905 906 907 908 909 910 911 912 913 914 915 916 917 918 919
... skipped 112112 lines ...
v -1071818 -1071819 -1071820 -1071821 -1071822 -1071823 -1071824 -1071825
v -1071826 -1071827 -1071828 -1071829 1071830 -1071831 1071832 -1071833
v -1071834 -1071835 -1071836 -1071837 -1071838 -1071839 -1071840 -1071841
v -1071842 -1071843 -1071844 -1071845 -1071846 -1071847 -1071848 -1071849
v -1071850 -1071851 -1071852 -1071853 -1071854 -1071855 -1071856 -1071857
v -1071858 -1071859 -1071860 -1071861 -1071862 -1071863 -1071864 -1071865
v 1071866 -1071867 1071868 -1071869 1071870 -1071871 1071872 -1071873 -1071874
v 1071875 1071876 -1071877 -1071878 1071879 -1071880 -1071881 -1071882
v -1071883 -1071884 -1071885 -1071886 -1071887 -1071888 1071889 1071890
v -1071891 1071892 -1071893 -1071894 -1071895 1071896 1071897 -1071898 1071899
v -1071900 -1071901 -1071902 1071903 1071904 -1071905 1071906 -1071907
v -1071908 -1071909 -1071910 1071911 -1071912 1071913 1071914 -1071915
v -1071916 -1071917 1071918 -1071919 -1071920 1071921 -1071922 -1071923
v 1071924 -1071925 -1071926 1071927 -1071928 1071929 -1071930 -1071931
v -1071932 -1071933 -1071934 -1071935 -1071936 -1071937 -1071938 -1071939
v -1071940 -1071941 -1071942 -1071943 -1071944 -1071945 -1071946 -1071947
v -1071948 -1071949 -1071950 -1071951 -1071952 -1071953 -1071954 -1071955
v -1071956 -1071957 -1071958 -1071959 -1071960 -1071961 -1071962 1071963
v -1071964 1071965 -1071966 -1071967 -1071968 -1071969 -1071970 -1071971
v -1071972 -1071973 -1071974 -1071975 -1071976 -1071977 -1071978 -1071979
v -1071980 -1071981 -1071982 -1071983 -1071984 -1071985 -1071986 -1071987
v -1071988 -1071989 -1071990 -1071991 -1071992 -1071993 -1071994 -1071995
v -1071996 -1071997 -1071998 1071999 -1072000 1072001 -1072002 -1072003
v -1072004 -1072005 -1072006 -1072007 -1072008 -1072009 -1072010 -1072011
v -1072012 -1072013 -1072014 -1072015 -1072016 -1072017 -1072018 -1072019
v -1072020 -1072021 -1072022 -1072023 -1072024 -1072025 -1072026 -1072027
v -1072028 -1072029 -1072030 -1072031 -1072032 -1072033 -1072034 -1072035
v 1072036 -1072037 -1072038 -1072039 -1072040 -1072041 -1072042 -1072043
v -1072044 -1072045 -1072046 -1072047 -1072048 -1072049 -1072050 -1072051
v -1072052 -1072053 -1072054 -1072055 -1072056 -1072057 -1072058 -1072059
v -1072060 -1072061 -1072062 -1072063 -1072064 -1072065 -1072066 -1072067
v -1072068 -1072069 -1072070 1072071 -1072072 1072073 -1072074 -1072075
v -1072076 -1072077 -1072078 -1072079 -1072080 -1072081 -1072082 -1072083
v -1072084 -1072085 -1072086 -1072087 -1072088 -1072089 -1072090 -1072091
v -1072092 -1072093 -1072094 -1072095 -1072096 -1072097 -1072098 -1072099
v -1072100 -1072101 -1072102 -1072103 -1072104 -1072105 -1072106 1072107
v -1072108 1072109 -1072110 -1072111 -1072112 -1072113 -1072114 -1072115
v -1072116 -1072117 -1072118 -1072119 -1072120 -1072121 -1072122 -1072123
v -1072124 -1072125 -1072126 -1072127 -1072128 -1072129 -1072130 -1072131
v -1072132 -1072133 -1072134 -1072135 -1072136 -1072137 -1072138 -1072139
v -1072140 -1072141 -1072142 1072143 -1072144 1072145 -1072146 -1072147
v -1072148 -1072149 -1072150 -1072151 -1072152 -1072153 -1072154 -1072155
v -1072156 -1072157 -1072158 -1072159 -1072160 -1072161 -1072162 -1072163
v -1072164 -1072165 -1072166 -1072167 -1072168 -1072169 -1072170 -1072171
v -1072172 -1072173 -1072174 -1072175 -1072176 -1072177 -1072178 -1072179
v 1072180 -1072181 1072182 -1072183 -1072184 -1072185 -1072186 -1072187
v -1072188 -1072189 -1072190 -1072191 -1072192 -1072193 -1072194 -1072195
v -1072196 -1072197 -1072198 -1072199 -1072200 -1072201 -1072202 -1072203
v -1072204 -1072205 -1072206 -1072207 -1072208 -1072209 -1072210 -1072211
v -1072212 -1072213 -1072214 -1072215 1072216 -1072217 1072218 -1072219
v -1072220 -1072221 -1072222 -1072223 -1072224 -1072225 -1072226 -1072227
v -1072228 -1072229 -1072230 -1072231 -1072232 -1072233 -1072234 -1072235
v -1072236 -1072237 -1072238 -1072239 -1072240 -1072241 -1072242 -1072243
v -1072244 -1072245 -1072246 -1072247 -1072248 -1072249 -1072250 -1072251
v 1072252 -1072253 1072254 -1072255 -1072256 -1072257 -1072258 -1072259
v -1072260 -1072261 -1072262 -1072263 -1072264 -1072265 -1072266 -1072267
v -1072268 -1072269 -1072270 -1072271 -1072272 -1072273 -1072274 -1072275
v -1072276 -1072277 -1072278 -1072279 -1072280 -1072281 -1072282 -1072283
v -1072284 -1072285 -1072286 -1072287 1072288 -1072289 1072290 -1072291
v -1072292 -1072293 -1072294 -1072295 -1072296 -1072297 -1072298 -1072299
v -1072300 -1072301 -1072302 -1072303 -1072304 -1072305 -1072306 -1072307
v -1072308 -1072309 -1072310 -1072311 -1072312 -1072313 -1072314 -1072315
v -1072316 -1072317 -1072318 -1072319 -1072320 -1072321 -1072322 -1072323
v 1072324 -1072325 1072326 -1072327 1072328 -1072329 0
c 
c --- [ run-time profiling ] -------------------------------------------------
c 
c process time taken by individual solving procedures
c (percentage relative to process time for solving)
c 
c         0.43  723.69% parse
c         0.06   99.80% search
c         0.06   99.80% lucky
c         0.00    0.00% simplify
c   =================================
c         0.06   11.10% solve
c 
c last line shows process time for solving
c (percentage relative to total process time)
c 
c --- [ statistics ] ---------------------------------------------------------
c 
c fixed:                    506074        47.19 %  of all variables
c lucky:                         1       100.00 %  of tried
c minimized:                     0         0.00 %  learned literals
c shrunken:                      0         0.00 %  learned literals
c minishrunken:                  0         0.00 %  learned literals
c propagations:             506074         8.56 M  per second
c 
c seconds are measured in process time for solving
c 
c --- [ resources ] ----------------------------------------------------------
c 
c total process time since initialization:         0.53    seconds
c total real time since initialization:            0.55    seconds
c maximum resident set size of process:          435.32    MB
c 
c --- [ shutting down ] ------------------------------------------------------
c 
c exit 10
